Ru  O 
 1.0000000000000000
     4.5211703439742283    0.0000000000000000    0.0000000000000000
     0.0000000000000000    4.5211703439742283    0.0000000000000000
     0.0000000000000000    0.0000000000000000    3.1220947700814254
 Ru  O  
   2   4
Cartesian
  2.2605873747805472  2.2605873747805472  1.5610464987876165
  0.0000000000000000  0.0000000000000000  0.0000000000000000
  0.8781256802282785  3.6430390634575627  1.5610464987876165
  3.6430390634575627  0.8781256802282785  1.5610464987876165
  1.3824516886770153  1.3824516886770153  0.0000000000000000
  3.1387130550088260  3.1387130550088260  0.0000000000000000
